\Problem name: transaction                                                      
\FICO Xpress v9.2.5, Community, written 12:49:10, Nov 21, 2023

Minimize
__OBJ___: 9617.288250000001 - 126.99365 X_1_1 - 23.700000000000003 X_1_2
 - 690 X_1_3 - 164.99450000000002 X_1_4 - 19.8 X_1_5
 - 15.817499999999999 X_1_6 - 13.452 X_1_7 - 25.55 X_1_8 - 33.15 X_1_9
 - 810 X_1_10 - 126.99365 X_2_1 - 23.700000000000003 X_2_2 - 690 X_2_3
 - 164.99450000000002 X_2_4 - 19.8 X_2_5 - 15.817499999999999 X_2_6
 - 13.452 X_2_7 - 25.55 X_2_8 - 33.15 X_2_9 - 810 X_2_10 - 126.99365 X_3_1
 - 23.700000000000003 X_3_2 - 690 X_3_3 - 164.99450000000002 X_3_4
 - 19.8 X_3_5 - 15.817499999999999 X_3_6 - 13.452 X_3_7 - 25.55 X_3_8
 - 33.15 X_3_9 - 810 X_3_10 - 126.99365 X_4_1 - 23.700000000000003 X_4_2
 - 690 X_4_3 - 164.99450000000002 X_4_4 - 19.8 X_4_5
 - 15.817499999999999 X_4_6 - 13.452 X_4_7 - 25.55 X_4_8 - 33.15 X_4_9
 - 810 X_4_10 - 126.99365 X_5_1 - 23.700000000000003 X_5_2 - 690 X_5_3
 - 164.99450000000002 X_5_4 - 19.8 X_5_5 - 15.817499999999999 X_5_6
 - 13.452 X_5_7 - 25.55 X_5_8 - 33.15 X_5_9 - 810 X_5_10 - 126.99365 X4_1_1
 - 23.700000000000003 X4_1_2 - 690 X4_1_3 - 164.99450000000002 X4_1_4
 - 19.8 X4_1_5 - 15.817499999999999 X4_1_6 - 13.452 X4_1_7 - 25.55 X4_1_8
 - 33.15 X4_1_9 - 810 X4_1_10 - 126.99365 X4_2_1 - 23.700000000000003 X4_2_2
 - 690 X4_2_3 - 164.99450000000002 X4_2_4 - 19.8 X4_2_5
 - 15.817499999999999 X4_2_6 - 13.452 X4_2_7 - 25.55 X4_2_8 - 33.15 X4_2_9
 - 810 X4_2_10 - 126.99365 X4_3_1 - 23.700000000000003 X4_3_2 - 690 X4_3_3
 - 164.99450000000002 X4_3_4 - 19.8 X4_3_5 - 15.817499999999999 X4_3_6
 - 13.452 X4_3_7 - 25.55 X4_3_8 - 33.15 X4_3_9 - 810 X4_3_10
 - 126.99365 X4_4_1 - 23.700000000000003 X4_4_2 - 690 X4_4_3
 - 164.99450000000002 X4_4_4 - 19.8 X4_4_5 - 15.817499999999999 X4_4_6
 - 13.452 X4_4_7 - 25.55 X4_4_8 - 33.15 X4_4_9 - 810 X4_4_10
 - 126.99365 X4_5_1 - 23.700000000000003 X4_5_2 - 690 X4_5_3
 - 164.99450000000002 X4_5_4 - 19.8 X4_5_5 - 15.817499999999999 X4_5_6
 - 13.452 X4_5_7 - 25.55 X4_5_8 - 33.15 X4_5_9 - 810 X4_5_10 - 125.99365 Z_1_1
 - 23.450000000000003 Z_2_1 - 689 Z_3_1 - 163.99450000000002 Z_4_1
 - 19.55 Z_5_1 - 15.567499999999999 Z_6_1 - 13.202 Z_7_1 - 25.3 Z_8_1
 - 32.9 Z_9_1 - 809 Z_10_1 - 125.99365 Z_1_2 - 23.450000000000003 Z_2_2
 - 689 Z_3_2 - 163.99450000000002 Z_4_2 - 19.55 Z_5_2
 - 15.567499999999999 Z_6_2 - 13.202 Z_7_2 - 25.3 Z_8_2 - 32.9 Z_9_2
 - 809 Z_10_2 - 125.99365 Z_1_3 - 23.450000000000003 Z_2_3 - 689 Z_3_3
 - 163.99450000000002 Z_4_3 - 19.55 Z_5_3 - 15.567499999999999 Z_6_3
 - 13.202 Z_7_3 - 25.3 Z_8_3 - 32.9 Z_9_3 - 809 Z_10_3 - 125.99365 Z_1_4
 - 23.450000000000003 Z_2_4 - 689 Z_3_4 - 163.99450000000002 Z_4_4
 - 19.55 Z_5_4 - 15.567499999999999 Z_6_4 - 13.202 Z_7_4 - 25.3 Z_8_4
 - 32.9 Z_9_4 - 809 Z_10_4 - 125.99365 Z_1_5 - 23.450000000000003 Z_2_5
 - 689 Z_3_5 - 163.99450000000002 Z_4_5 - 19.55 Z_5_5
 - 15.567499999999999 Z_6_5 - 13.202 Z_7_5 - 25.3 Z_8_5 - 32.9 Z_9_5
 - 809 Z_10_5 - 125.99365 Z4_1_1 - 23.450000000000003 Z4_2_1 - 689 Z4_3_1
 - 163.99450000000002 Z4_4_1 - 19.55 Z4_5_1 - 15.567499999999999 Z4_6_1
 - 13.202 Z4_7_1 - 25.3 Z4_8_1 - 32.9 Z4_9_1 - 809 Z4_10_1 - 125.99365 Z4_1_2
 - 23.450000000000003 Z4_2_2 - 689 Z4_3_2 - 163.99450000000002 Z4_4_2
 - 19.55 Z4_5_2 - 15.567499999999999 Z4_6_2 - 13.202 Z4_7_2 - 25.3 Z4_8_2
 - 32.9 Z4_9_2 - 809 Z4_10_2 - 125.99365 Z4_1_3 - 23.450000000000003 Z4_2_3
 - 689 Z4_3_3 - 163.99450000000002 Z4_4_3 - 19.55 Z4_5_3
 - 15.567499999999999 Z4_6_3 - 13.202 Z4_7_3 - 25.3 Z4_8_3 - 32.9 Z4_9_3
 - 809 Z4_10_3 - 125.99365 Z4_1_4 - 23.450000000000003 Z4_2_4 - 689 Z4_3_4
 - 163.99450000000002 Z4_4_4 - 19.55 Z4_5_4 - 15.567499999999999 Z4_6_4
 - 13.202 Z4_7_4 - 25.3 Z4_8_4 - 32.9 Z4_9_4 - 809 Z4_10_4 - 125.99365 Z4_1_5
 - 23.450000000000003 Z4_2_5 - 689 Z4_3_5 - 163.99450000000002 Z4_4_5
 - 19.55 Z4_5_5 - 15.567499999999999 Z4_6_5 - 13.202 Z4_7_5 - 25.3 Z4_8_5
 - 32.9 Z4_9_5 - 809 Z4_10_5

Subject To
R226: X_1_1 + X_2_1 + X_3_1 + X_4_1 + X_5_1 + X4_1_1 + X4_2_1 + X4_3_1 + X4_4_1
          + X4_5_1 + Z_1_1 + Z_1_2 + Z_1_3 + Z_1_4 + Z_1_5 + Z4_1_1 + Z4_1_2
          + Z4_1_3 + Z4_1_4 + Z4_1_5 <= 1 
R227: X_1_2 + X_2_2 + X_3_2 + X_4_2 + X_5_2 + X4_1_2 + X4_2_2 + X4_3_2 + X4_4_2
          + X4_5_2 + Z_2_1 + Z_2_2 + Z_2_3 + Z_2_4 + Z_2_5 + Z4_2_1 + Z4_2_2
          + Z4_2_3 + Z4_2_4 + Z4_2_5 <= 1 
R228: X_1_3 + X_2_3 + X_3_3 + X_4_3 + X_5_3 + X4_1_3 + X4_2_3 + X4_3_3 + X4_4_3
          + X4_5_3 + Z_3_1 + Z_3_2 + Z_3_3 + Z_3_4 + Z_3_5 + Z4_3_1 + Z4_3_2
          + Z4_3_3 + Z4_3_4 + Z4_3_5 <= 1 
R229: X_1_4 + X_2_4 + X_3_4 + X_4_4 + X_5_4 + X4_1_4 + X4_2_4 + X4_3_4 + X4_4_4
          + X4_5_4 + Z_4_1 + Z_4_2 + Z_4_3 + Z_4_4 + Z_4_5 + Z4_4_1 + Z4_4_2
          + Z4_4_3 + Z4_4_4 + Z4_4_5 <= 1 
R230: X_1_5 + X_2_5 + X_3_5 + X_4_5 + X_5_5 + X4_1_5 + X4_2_5 + X4_3_5 + X4_4_5
          + X4_5_5 + Z_5_1 + Z_5_2 + Z_5_3 + Z_5_4 + Z_5_5 + Z4_5_1 + Z4_5_2
          + Z4_5_3 + Z4_5_4 + Z4_5_5 <= 1 
R231: X_1_6 + X_2_6 + X_3_6 + X_4_6 + X_5_6 + X4_1_6 + X4_2_6 + X4_3_6 + X4_4_6
          + X4_5_6 + Z_6_1 + Z_6_2 + Z_6_3 + Z_6_4 + Z_6_5 + Z4_6_1 + Z4_6_2
          + Z4_6_3 + Z4_6_4 + Z4_6_5 <= 1 
R232: X_1_7 + X_2_7 + X_3_7 + X_4_7 + X_5_7 + X4_1_7 + X4_2_7 + X4_3_7 + X4_4_7
          + X4_5_7 + Z_7_1 + Z_7_2 + Z_7_3 + Z_7_4 + Z_7_5 + Z4_7_1 + Z4_7_2
          + Z4_7_3 + Z4_7_4 + Z4_7_5 <= 1 
R233: X_1_8 + X_2_8 + X_3_8 + X_4_8 + X_5_8 + X4_1_8 + X4_2_8 + X4_3_8 + X4_4_8
          + X4_5_8 + Z_8_1 + Z_8_2 + Z_8_3 + Z_8_4 + Z_8_5 + Z4_8_1 + Z4_8_2
          + Z4_8_3 + Z4_8_4 + Z4_8_5 <= 1 
R234: X_1_9 + X_2_9 + X_3_9 + X_4_9 + X_5_9 + X4_1_9 + X4_2_9 + X4_3_9 + X4_4_9
          + X4_5_9 + Z_9_1 + Z_9_2 + Z_9_3 + Z_9_4 + Z_9_5 + Z4_9_1 + Z4_9_2
          + Z4_9_3 + Z4_9_4 + Z4_9_5 <= 1 
R235: X_1_10 + X_2_10 + X_3_10 + X_4_10 + X_5_10 + X4_1_10 + X4_2_10 + X4_3_10
          + X4_4_10 + X4_5_10 + Z_10_1 + Z_10_2 + Z_10_3 + Z_10_4 + Z_10_5
          + Z4_10_1 + Z4_10_2 + Z4_10_3 + Z4_10_4 + Z4_10_5 <= 1 
R236: X_1_1 + 0.25 X_1_2 + X_1_3 + X_1_4 + 0.25 X_1_5 + 0.25 X_1_6 + 0.25 X_1_7
          + 0.25 X_1_8 + 0.25 X_1_9 + X_1_10 - C_1 <= 0 
R237: X_2_1 + 0.25 X_2_2 + X_2_3 + X_2_4 + 0.25 X_2_5 + 0.25 X_2_6 + 0.25 X_2_7
          + 0.25 X_2_8 + 0.25 X_2_9 + X_2_10 - C_2 <= 0 
R238: X_3_1 + 0.25 X_3_2 + X_3_3 + X_3_4 + 0.25 X_3_5 + 0.25 X_3_6 + 0.25 X_3_7
          + 0.25 X_3_8 + 0.25 X_3_9 + X_3_10 - C_3 <= 0 
R239: X_4_1 + 0.25 X_4_2 + X_4_3 + X_4_4 + 0.25 X_4_5 + 0.25 X_4_6 + 0.25 X_4_7
          + 0.25 X_4_8 + 0.25 X_4_9 + X_4_10 - C_4 <= 0 
R240: X_5_1 + 0.25 X_5_2 + X_5_3 + X_5_4 + 0.25 X_5_5 + 0.25 X_5_6 + 0.25 X_5_7
          + 0.25 X_5_8 + 0.25 X_5_9 + X_5_10 - C_5 <= 0 
R241: X4_1_1 + 0.25 X4_1_2 + X4_1_3 + X4_1_4 + 0.25 X4_1_5 + 0.25 X4_1_6
          + 0.25 X4_1_7 + 0.25 X4_1_8 + 0.25 X4_1_9 + X4_1_10 - C4_1 <= 0 
R242: X4_2_1 + 0.25 X4_2_2 + X4_2_3 + X4_2_4 + 0.25 X4_2_5 + 0.25 X4_2_6
          + 0.25 X4_2_7 + 0.25 X4_2_8 + 0.25 X4_2_9 + X4_2_10 - C4_2 <= 0 
R243: X4_3_1 + 0.25 X4_3_2 + X4_3_3 + X4_3_4 + 0.25 X4_3_5 + 0.25 X4_3_6
          + 0.25 X4_3_7 + 0.25 X4_3_8 + 0.25 X4_3_9 + X4_3_10 - C4_3 <= 0 
R244: X4_4_1 + 0.25 X4_4_2 + X4_4_3 + X4_4_4 + 0.25 X4_4_5 + 0.25 X4_4_6
          + 0.25 X4_4_7 + 0.25 X4_4_8 + 0.25 X4_4_9 + X4_4_10 - C4_4 <= 0 
R245: X4_5_1 + 0.25 X4_5_2 + X4_5_3 + X4_5_4 + 0.25 X4_5_5 + 0.25 X4_5_6
          + 0.25 X4_5_7 + 0.25 X4_5_8 + 0.25 X4_5_9 + X4_5_10 - C4_5 <= 0 
R246: C_1 + C4_1 <= 8 
R247: C_2 + C4_2 <= 12 
R248: C_3 + C4_3 <= 10 
R249: C_4 + C4_4 <= 10 
R250: C_5 + C4_5 <= 10 
R251: Z_1_1 <= 1 
R252: Z_1_2 <= 0 
R253: Z_1_3 <= 0 
R254: Z_1_4 <= 0 
R255: Z_1_5 <= 1 
R256: Z_2_1 <= 0 
R257: Z_2_2 <= 0 
R258: Z_2_3 <= 1 
R259: Z_2_4 <= 0 
R260: Z_2_5 <= 1 
R261: Z_3_1 <= 0 
R262: Z_3_2 <= 0 
R263: Z_3_3 <= 0 
R264: Z_3_4 <= 1 
R265: Z_3_5 <= 1 
R266: Z_4_1 <= 0 
R267: Z_4_2 <= 0 
R268: Z_4_3 <= 0 
R269: Z_4_4 <= 0 
R270: Z_4_5 <= 2 
R271: Z_5_1 <= 0 
R272: Z_5_2 <= 1 
R273: Z_5_3 <= 0 
R274: Z_5_4 <= 0 
R275: Z_5_5 <= 1 
R276: Z_6_1 <= 0 
R277: Z_6_2 <= 0 
R278: Z_6_3 <= 0 
R279: Z_6_4 <= 0 
R280: Z_6_5 <= 2 
R281: Z_7_1 <= 1 
R282: Z_7_2 <= 0 
R283: Z_7_3 <= 0 
R284: Z_7_4 <= 0 
R285: Z_7_5 <= 1 
R286: Z_8_1 <= 1 
R287: Z_8_2 <= 0 
R288: Z_8_3 <= 0 
R289: Z_8_4 <= 0 
R290: Z_8_5 <= 1 
R291: Z_9_1 <= 1 
R292: Z_9_2 <= 0 
R293: Z_9_3 <= 0 
R294: Z_9_4 <= 0 
R295: Z_9_5 <= 1 
R296: Z_10_1 <= 0 
R297: Z_10_2 <= 0 
R298: Z_10_3 <= 1 
R299: Z_10_4 <= 0 
R300: Z_10_5 <= 1 
R301: X_1_1 <= 1 
R302: X_2_1 <= 0 
R303: X_3_1 <= 0 
R304: X_4_1 <= 0 
R305: X_5_1 <= 1 
R306: X_1_2 <= 0 
R307: X_2_2 <= 0 
R308: X_3_2 <= 1 
R309: X_4_2 <= 0 
R310: X_5_2 <= 1 
R311: X_1_3 <= 0 
R312: X_2_3 <= 0 
R313: X_3_3 <= 0 
R314: X_4_3 <= 1 
R315: X_5_3 <= 1 
R316: X_1_4 <= 0 
R317: X_2_4 <= 0 
R318: X_3_4 <= 0 
R319: X_4_4 <= 0 
R320: X_5_4 <= 2 
R321: X_1_5 <= 0 
R322: X_2_5 <= 1 
R323: X_3_5 <= 0 
R324: X_4_5 <= 0 
R325: X_5_5 <= 1 
R326: X_1_6 <= 0 
R327: X_2_6 <= 0 
R328: X_3_6 <= 0 
R329: X_4_6 <= 0 
R330: X_5_6 <= 2 
R331: X_1_7 <= 1 
R332: X_2_7 <= 0 
R333: X_3_7 <= 0 
R334: X_4_7 <= 0 
R335: X_5_7 <= 1 
R336: X_1_8 <= 1 
R337: X_2_8 <= 0 
R338: X_3_8 <= 0 
R339: X_4_8 <= 0 
R340: X_5_8 <= 1 
R341: X_1_9 <= 1 
R342: X_2_9 <= 0 
R343: X_3_9 <= 0 
R344: X_4_9 <= 0 
R345: X_5_9 <= 1 
R346: X_1_10 <= 0 
R347: X_2_10 <= 0 
R348: X_3_10 <= 1 
R349: X_4_10 <= 0 
R350: X_5_10 <= 1 
R351: Z4_1_1 <= 0 
R352: Z4_1_2 <= 0 
R353: Z4_1_3 <= 0 
R354: Z4_1_4 <= 0 
R355: Z4_1_5 <= 0 
R356: Z4_2_1 <= 0 
R357: Z4_2_2 <= 0 
R358: Z4_2_3 <= 0 
R359: Z4_2_4 <= 0 
R360: Z4_2_5 <= 0 
R361: Z4_3_1 <= 0 
R362: Z4_3_2 <= 0 
R363: Z4_3_3 <= 0 
R364: Z4_3_4 <= 0 
R365: Z4_3_5 <= 0 
R366: Z4_4_1 <= 0 
R367: Z4_4_2 <= 0 
R368: Z4_4_3 <= 0 
R369: Z4_4_4 <= 0 
R370: Z4_4_5 <= 0 
R371: Z4_5_1 <= 0 
R372: Z4_5_2 <= 0 
R373: Z4_5_3 <= 0 
R374: Z4_5_4 <= 0 
R375: Z4_5_5 <= 0 
R376: Z4_6_1 <= 0 
R377: Z4_6_2 <= 0 
R378: Z4_6_3 <= 0 
R379: Z4_6_4 <= 0 
R380: Z4_6_5 <= 0 
R381: Z4_7_1 <= 0 
R382: Z4_7_2 <= 0 
R383: Z4_7_3 <= 0 
R384: Z4_7_4 <= 0 
R385: Z4_7_5 <= 0 
R386: Z4_8_1 <= 0 
R387: Z4_8_2 <= 0 
R388: Z4_8_3 <= 0 
R389: Z4_8_4 <= 0 
R390: Z4_8_5 <= 0 
R391: Z4_9_1 <= 0 
R392: Z4_9_2 <= 0 
R393: Z4_9_3 <= 0 
R394: Z4_9_4 <= 0 
R395: Z4_9_5 <= 0 
R396: Z4_10_1 <= 0 
R397: Z4_10_2 <= 0 
R398: Z4_10_3 <= 0 
R399: Z4_10_4 <= 0 
R400: Z4_10_5 <= 0 
R401: X4_1_1 <= 0 
R402: X4_2_1 <= 0 
R403: X4_3_1 <= 0 
R404: X4_4_1 <= 0 
R405: X4_5_1 <= 0 
R406: X4_1_2 <= 0 
R407: X4_2_2 <= 0 
R408: X4_3_2 <= 0 
R409: X4_4_2 <= 0 
R410: X4_5_2 <= 0 
R411: X4_1_3 <= 0 
R412: X4_2_3 <= 0 
R413: X4_3_3 <= 0 
R414: X4_4_3 <= 0 
R415: X4_5_3 <= 0 
R416: X4_1_4 <= 0 
R417: X4_2_4 <= 0 
R418: X4_3_4 <= 0 
R419: X4_4_4 <= 0 
R420: X4_5_4 <= 0 
R421: X4_1_5 <= 0 
R422: X4_2_5 <= 0 
R423: X4_3_5 <= 0 
R424: X4_4_5 <= 0 
R425: X4_5_5 <= 0 
R426: X4_1_6 <= 0 
R427: X4_2_6 <= 0 
R428: X4_3_6 <= 0 
R429: X4_4_6 <= 0 
R430: X4_5_6 <= 0 
R431: X4_1_7 <= 0 
R432: X4_2_7 <= 0 
R433: X4_3_7 <= 0 
R434: X4_4_7 <= 0 
R435: X4_5_7 <= 0 
R436: X4_1_8 <= 0 
R437: X4_2_8 <= 0 
R438: X4_3_8 <= 0 
R439: X4_4_8 <= 0 
R440: X4_5_8 <= 0 
R441: X4_1_9 <= 0 
R442: X4_2_9 <= 0 
R443: X4_3_9 <= 0 
R444: X4_4_9 <= 0 
R445: X4_5_9 <= 0 
R446: X4_1_10 <= 0 
R447: X4_2_10 <= 0 
R448: X4_3_10 <= 0 
R449: X4_4_10 <= 0 
R450: X4_5_10 <= 0 

Bounds

End
